
Gurobi 10.0.1 (mac64[rosetta2], gurobi_cl) logging started Wed Dec 18 13:27:40 2024

Set parameter Username
Set parameter LogFile to value "gurobi.log"
Academic license - for non-commercial use only - expires 2025-03-14
Using license file /Users/idunmariaburgos/gurobi.lic
